c 0.010284662246704102 (encode time in sec)
p cnf 173 1048
1 2 3 10 0
1 2 -3 4 0
1 -2 3 7 0
1 -2 -3 5 0
-1 2 3 6 0
-1 2 -3 8 0
-1 -2 3 9 0
-1 -2 -3 10 0
11 12 13 19 0
11 12 -13 14 0
11 -12 13 17 0
11 -12 -13 16 0
-11 12 13 15 0
-11 12 -13 18 0
-11 -12 13 21 0
-11 -12 -13 20 0
22 23 24 25 0
22 23 -24 31 0
22 -23 24 27 0
22 -23 -24 26 0
-22 23 24 28 0
-22 23 -24 29 0
-22 -23 24 30 0
-22 -23 -24 32 0
33 34 35 1 2 3 11 12 13 36 0
33 34 35 1 2 3 11 12 -13 37 0
33 34 35 1 2 3 11 -12 13 36 0
33 34 35 1 2 3 11 -12 -13 0
33 34 35 1 2 3 -11 12 13 0
33 34 35 1 2 3 -11 12 -13 0
33 34 35 1 2 3 -11 -12 13 36 0
33 34 35 1 2 3 -11 -12 -13 36 0
33 34 35 1 2 -3 11 12 13 36 0
33 34 35 1 2 -3 11 12 -13 38 0
33 34 35 1 2 -3 11 -12 13 0
33 34 35 1 2 -3 11 -12 -13 0
33 34 35 1 2 -3 -11 12 13 0
33 34 35 1 2 -3 -11 12 -13 0
33 34 35 1 2 -3 -11 -12 13 0
33 34 35 1 2 -3 -11 -12 -13 36 0
33 34 35 1 -2 3 11 12 13 0
33 34 35 1 -2 3 11 12 -13 40 0
33 34 35 1 -2 3 11 -12 13 0
33 34 35 1 -2 3 11 -12 -13 0
33 34 35 1 -2 3 -11 12 13 0
33 34 35 1 -2 3 -11 12 -13 0
33 34 35 1 -2 3 -11 -12 13 0
33 34 35 1 -2 3 -11 -12 -13 0
33 34 35 1 -2 -3 11 12 13 0
33 34 35 1 -2 -3 11 12 -13 99 0
33 34 35 1 -2 -3 11 -12 13 0
33 34 35 1 -2 -3 11 -12 -13 0
33 34 35 1 -2 -3 -11 12 13 0
33 34 35 1 -2 -3 -11 12 -13 0
33 34 35 1 -2 -3 -11 -12 13 0
33 34 35 1 -2 -3 -11 -12 -13 36 0
33 34 35 -1 2 3 11 12 13 0
33 34 35 -1 2 3 11 12 -13 0
33 34 35 -1 2 3 11 -12 13 0
33 34 35 -1 2 3 11 -12 -13 0
33 34 35 -1 2 3 -11 12 13 0
33 34 35 -1 2 3 -11 12 -13 0
33 34 35 -1 2 3 -11 -12 13 0
33 34 35 -1 2 3 -11 -12 -13 0
33 34 35 -1 2 -3 11 12 13 0
33 34 35 -1 2 -3 11 12 -13 0
33 34 35 -1 2 -3 11 -12 13 0
33 34 35 -1 2 -3 11 -12 -13 0
33 34 35 -1 2 -3 -11 12 13 0
33 34 35 -1 2 -3 -11 12 -13 0
33 34 35 -1 2 -3 -11 -12 13 0
33 34 35 -1 2 -3 -11 -12 -13 36 0
33 34 35 -1 -2 3 11 12 13 0
33 34 35 -1 -2 3 11 12 -13 0
33 34 35 -1 -2 3 11 -12 13 0
33 34 35 -1 -2 3 11 -12 -13 0
33 34 35 -1 -2 3 -11 12 13 0
33 34 35 -1 -2 3 -11 12 -13 0
33 34 35 -1 -2 3 -11 -12 13 0
33 34 35 -1 -2 3 -11 -12 -13 36 0
33 34 35 -1 -2 -3 11 12 13 36 0
33 34 35 -1 -2 -3 11 12 -13 36 0
33 34 35 -1 -2 -3 11 -12 13 0
33 34 35 -1 -2 -3 11 -12 -13 0
33 34 35 -1 -2 -3 -11 12 13 0
33 34 35 -1 -2 -3 -11 12 -13 0
33 34 35 -1 -2 -3 -11 -12 13 36 0
33 34 35 -1 -2 -3 -11 -12 -13 36 0
33 34 -35 1 2 3 11 12 13 36 0
33 34 -35 1 2 3 11 12 -13 0
33 34 -35 1 2 3 11 -12 13 36 0
33 34 -35 1 2 3 11 -12 -13 41 0
33 34 -35 1 2 3 -11 12 13 0
33 34 -35 1 2 3 -11 12 -13 0
33 34 -35 1 2 3 -11 -12 13 36 0
33 34 -35 1 2 3 -11 -12 -13 36 0
33 34 -35 1 2 -3 11 12 13 36 0
33 34 -35 1 2 -3 11 12 -13 42 0
33 34 -35 1 2 -3 11 -12 13 43 0
33 34 -35 1 2 -3 11 -12 -13 0
33 34 -35 1 2 -3 -11 12 13 0
33 34 -35 1 2 -3 -11 12 -13 0
33 34 -35 1 2 -3 -11 -12 13 0
33 34 -35 1 2 -3 -11 -12 -13 36 0
33 34 -35 1 -2 3 11 12 13 37 0
33 34 -35 1 -2 3 11 12 -13 44 0
33 34 -35 1 -2 3 11 -12 13 61 0
33 34 -35 1 -2 3 11 -12 -13 0
33 34 -35 1 -2 3 -11 12 13 0
33 34 -35 1 -2 3 -11 12 -13 0
33 34 -35 1 -2 3 -11 -12 13 0
33 34 -35 1 -2 3 -11 -12 -13 0
33 34 -35 1 -2 -3 11 12 13 86 0
33 34 -35 1 -2 -3 11 12 -13 45 0
33 34 -35 1 -2 -3 11 -12 13 0
33 34 -35 1 -2 -3 11 -12 -13 0
33 34 -35 1 -2 -3 -11 12 13 0
33 34 -35 1 -2 -3 -11 12 -13 0
33 34 -35 1 -2 -3 -11 -12 13 0
33 34 -35 1 -2 -3 -11 -12 -13 36 0
33 34 -35 -1 2 3 11 12 13 0
33 34 -35 -1 2 3 11 12 -13 95 0
33 34 -35 -1 2 3 11 -12 13 0
33 34 -35 -1 2 3 11 -12 -13 0
33 34 -35 -1 2 3 -11 12 13 0
33 34 -35 -1 2 3 -11 12 -13 0
33 34 -35 -1 2 3 -11 -12 13 0
33 34 -35 -1 2 3 -11 -12 -13 0
33 34 -35 -1 2 -3 11 12 13 78 0
33 34 -35 -1 2 -3 11 12 -13 0
33 34 -35 -1 2 -3 11 -12 13 0
33 34 -35 -1 2 -3 11 -12 -13 0
33 34 -35 -1 2 -3 -11 12 13 0
33 34 -35 -1 2 -3 -11 12 -13 0
33 34 -35 -1 2 -3 -11 -12 13 0
33 34 -35 -1 2 -3 -11 -12 -13 36 0
33 34 -35 -1 -2 3 11 12 13 0
33 34 -35 -1 -2 3 11 12 -13 0
33 34 -35 -1 -2 3 11 -12 13 0
33 34 -35 -1 -2 3 11 -12 -13 0
33 34 -35 -1 -2 3 -11 12 13 0
33 34 -35 -1 -2 3 -11 12 -13 0
33 34 -35 -1 -2 3 -11 -12 13 0
33 34 -35 -1 -2 3 -11 -12 -13 36 0
33 34 -35 -1 -2 -3 11 12 13 36 0
33 34 -35 -1 -2 -3 11 12 -13 36 0
33 34 -35 -1 -2 -3 11 -12 13 0
33 34 -35 -1 -2 -3 11 -12 -13 0
33 34 -35 -1 -2 -3 -11 12 13 0
33 34 -35 -1 -2 -3 -11 12 -13 0
33 34 -35 -1 -2 -3 -11 -12 13 36 0
33 34 -35 -1 -2 -3 -11 -12 -13 36 0
33 -34 35 1 2 3 11 12 13 36 0
33 -34 35 1 2 3 11 12 -13 0
33 -34 35 1 2 3 11 -12 13 36 0
33 -34 35 1 2 3 11 -12 -13 41 0
33 -34 35 1 2 3 -11 12 13 66 0
33 -34 35 1 2 3 -11 12 -13 0
33 -34 35 1 2 3 -11 -12 13 36 0
33 -34 35 1 2 3 -11 -12 -13 36 0
33 -34 35 1 2 -3 11 12 13 36 0
33 -34 35 1 2 -3 11 12 -13 0
33 -34 35 1 2 -3 11 -12 13 43 0
33 -34 35 1 2 -3 11 -12 -13 53 0
33 -34 35 1 2 -3 -11 12 13 49 0
33 -34 35 1 2 -3 -11 12 -13 0
33 -34 35 1 2 -3 -11 -12 13 0
33 -34 35 1 2 -3 -11 -12 -13 36 0
33 -34 35 1 -2 3 11 12 13 0
33 -34 35 1 -2 3 11 12 -13 46 0
33 -34 35 1 -2 3 11 -12 13 82 0
33 -34 35 1 -2 3 11 -12 -13 105 0
33 -34 35 1 -2 3 -11 12 13 0
33 -34 35 1 -2 3 -11 12 -13 0
33 -34 35 1 -2 3 -11 -12 13 0
33 -34 35 1 -2 3 -11 -12 -13 0
33 -34 35 1 -2 -3 11 12 13 71 0
33 -34 35 1 -2 -3 11 12 -13 69 0
33 -34 35 1 -2 -3 11 -12 13 65 0
33 -34 35 1 -2 -3 11 -12 -13 47 0
33 -34 35 1 -2 -3 -11 12 13 0
33 -34 35 1 -2 -3 -11 12 -13 0
33 -34 35 1 -2 -3 -11 -12 13 0
33 -34 35 1 -2 -3 -11 -12 -13 36 0
33 -34 35 -1 2 3 11 12 13 37 0
33 -34 35 -1 2 3 11 12 -13 110 0
33 -34 35 -1 2 3 11 -12 13 96 0
33 -34 35 -1 2 3 11 -12 -13 0
33 -34 35 -1 2 3 -11 12 13 0
33 -34 35 -1 2 3 -11 12 -13 0
33 -34 35 -1 2 3 -11 -12 13 0
33 -34 35 -1 2 3 -11 -12 -13 0
33 -34 35 -1 2 -3 11 12 13 93 0
33 -34 35 -1 2 -3 11 12 -13 106 0
33 -34 35 -1 2 -3 11 -12 13 0
33 -34 35 -1 2 -3 11 -12 -13 0
33 -34 35 -1 2 -3 -11 12 13 0
33 -34 35 -1 2 -3 -11 12 -13 0
33 -34 35 -1 2 -3 -11 -12 13 0
33 -34 35 -1 2 -3 -11 -12 -13 36 0
33 -34 35 -1 -2 3 11 12 13 37 0
33 -34 35 -1 -2 3 11 12 -13 0
33 -34 35 -1 -2 3 11 -12 13 0
33 -34 35 -1 -2 3 11 -12 -13 0
33 -34 35 -1 -2 3 -11 12 13 0
33 -34 35 -1 -2 3 -11 12 -13 0
33 -34 35 -1 -2 3 -11 -12 13 0
33 -34 35 -1 -2 3 -11 -12 -13 36 0
33 -34 35 -1 -2 -3 11 12 13 36 0
33 -34 35 -1 -2 -3 11 12 -13 36 0
33 -34 35 -1 -2 -3 11 -12 13 0
33 -34 35 -1 -2 -3 11 -12 -13 0
33 -34 35 -1 -2 -3 -11 12 13 0
33 -34 35 -1 -2 -3 -11 12 -13 0
33 -34 35 -1 -2 -3 -11 -12 13 36 0
33 -34 35 -1 -2 -3 -11 -12 -13 36 0
33 -34 -35 1 2 3 11 12 13 36 0
33 -34 -35 1 2 3 11 12 -13 0
33 -34 -35 1 2 3 11 -12 13 36 0
33 -34 -35 1 2 3 11 -12 -13 71 0
33 -34 -35 1 2 3 -11 12 13 90 0
33 -34 -35 1 2 3 -11 12 -13 66 0
33 -34 -35 1 2 3 -11 -12 13 36 0
33 -34 -35 1 2 3 -11 -12 -13 36 0
33 -34 -35 1 2 -3 11 12 13 36 0
33 -34 -35 1 2 -3 11 12 -13 0
33 -34 -35 1 2 -3 11 -12 13 0
33 -34 -35 1 2 -3 11 -12 -13 105 0
33 -34 -35 1 2 -3 -11 12 13 63 0
33 -34 -35 1 2 -3 -11 12 -13 49 0
33 -34 -35 1 2 -3 -11 -12 13 0
33 -34 -35 1 2 -3 -11 -12 -13 36 0
33 -34 -35 1 -2 3 11 12 13 0
33 -34 -35 1 -2 3 11 12 -13 0
33 -34 -35 1 -2 3 11 -12 13 61 0
33 -34 -35 1 -2 3 11 -12 -13 74 0
33 -34 -35 1 -2 3 -11 12 13 83 0
33 -34 -35 1 -2 3 -11 12 -13 0
33 -34 -35 1 -2 3 -11 -12 13 0
33 -34 -35 1 -2 3 -11 -12 -13 0
33 -34 -35 1 -2 -3 11 12 13 0
33 -34 -35 1 -2 -3 11 12 -13 0
33 -34 -35 1 -2 -3 11 -12 13 87 0
33 -34 -35 1 -2 -3 11 -12 -13 100 0
33 -34 -35 1 -2 -3 -11 12 13 97 0
33 -34 -35 1 -2 -3 -11 12 -13 0
33 -34 -35 1 -2 -3 -11 -12 13 0
33 -34 -35 1 -2 -3 -11 -12 -13 36 0
33 -34 -35 -1 2 3 11 12 13 0
33 -34 -35 -1 2 3 11 12 -13 101 0
33 -34 -35 -1 2 3 11 -12 13 58 0
33 -34 -35 -1 2 3 11 -12 -13 70 0
33 -34 -35 -1 2 3 -11 12 13 0
33 -34 -35 -1 2 3 -11 12 -13 0
33 -34 -35 -1 2 3 -11 -12 13 0
33 -34 -35 -1 2 3 -11 -12 -13 0
33 -34 -35 -1 2 -3 11 12 13 0
33 -34 -35 -1 2 -3 11 12 -13 54 0
33 -34 -35 -1 2 -3 11 -12 13 48 0
33 -34 -35 -1 2 -3 11 -12 -13 68 0
33 -34 -35 -1 2 -3 -11 12 13 0
33 -34 -35 -1 2 -3 -11 12 -13 0
33 -34 -35 -1 2 -3 -11 -12 13 0
33 -34 -35 -1 2 -3 -11 -12 -13 36 0
33 -34 -35 -1 -2 3 11 12 13 0
33 -34 -35 -1 -2 3 11 12 -13 37 0
33 -34 -35 -1 -2 3 11 -12 13 71 0
33 -34 -35 -1 -2 3 11 -12 -13 0
33 -34 -35 -1 -2 3 -11 12 13 0
33 -34 -35 -1 -2 3 -11 12 -13 0
33 -34 -35 -1 -2 3 -11 -12 13 0
33 -34 -35 -1 -2 3 -11 -12 -13 36 0
33 -34 -35 -1 -2 -3 11 12 13 36 0
33 -34 -35 -1 -2 -3 11 12 -13 36 0
33 -34 -35 -1 -2 -3 11 -12 13 0
33 -34 -35 -1 -2 -3 11 -12 -13 0
33 -34 -35 -1 -2 -3 -11 12 13 0
33 -34 -35 -1 -2 -3 -11 12 -13 0
33 -34 -35 -1 -2 -3 -11 -12 13 36 0
33 -34 -35 -1 -2 -3 -11 -12 -13 36 0
-33 34 35 1 2 3 11 12 13 36 0
-33 34 35 1 2 3 11 12 -13 0
-33 34 35 1 2 3 11 -12 13 36 0
-33 34 35 1 2 3 11 -12 -13 0
-33 34 35 1 2 3 -11 12 13 0
-33 34 35 1 2 3 -11 12 -13 90 0
-33 34 35 1 2 3 -11 -12 13 36 0
-33 34 35 1 2 3 -11 -12 -13 36 0
-33 34 35 1 2 -3 11 12 13 36 0
-33 34 35 1 2 -3 11 12 -13 0
-33 34 35 1 2 -3 11 -12 13 0
-33 34 35 1 2 -3 11 -12 -13 0
-33 34 35 1 2 -3 -11 12 13 88 0
-33 34 35 1 2 -3 -11 12 -13 110 0
-33 34 35 1 2 -3 -11 -12 13 37 0
-33 34 35 1 2 -3 -11 -12 -13 36 0
-33 34 35 1 -2 3 11 12 13 0
-33 34 35 1 -2 3 11 12 -13 0
-33 34 35 1 -2 3 11 -12 13 0
-33 34 35 1 -2 3 11 -12 -13 94 0
-33 34 35 1 -2 3 -11 12 13 89 0
-33 34 35 1 -2 3 -11 12 -13 55 0
-33 34 35 1 -2 3 -11 -12 13 0
-33 34 35 1 -2 3 -11 -12 -13 0
-33 34 35 1 -2 -3 11 12 13 0
-33 34 35 1 -2 -3 11 12 -13 0
-33 34 35 1 -2 -3 11 -12 13 79 0
-33 34 35 1 -2 -3 11 -12 -13 77 0
-33 34 35 1 -2 -3 -11 12 13 59 0
-33 34 35 1 -2 -3 -11 12 -13 107 0
-33 34 35 1 -2 -3 -11 -12 13 0
-33 34 35 1 -2 -3 -11 -12 -13 36 0
-33 34 35 -1 2 3 11 12 13 0
-33 34 35 -1 2 3 11 12 -13 0
-33 34 35 -1 2 3 11 -12 13 56 0
-33 34 35 -1 2 3 11 -12 -13 102 0
-33 34 35 -1 2 3 -11 12 13 84 0
-33 34 35 -1 2 3 -11 12 -13 73 0
-33 34 35 -1 2 3 -11 -12 13 0
-33 34 35 -1 2 3 -11 -12 -13 0
-33 34 35 -1 2 -3 11 12 13 0
-33 34 35 -1 2 -3 11 12 -13 0
-33 34 35 -1 2 -3 11 -12 13 91 0
-33 34 35 -1 2 -3 11 -12 -13 108 0
-33 34 35 -1 2 -3 -11 12 13 62 0
-33 34 35 -1 2 -3 -11 12 -13 0
-33 34 35 -1 2 -3 -11 -12 13 0
-33 34 35 -1 2 -3 -11 -12 -13 36 0
-33 34 35 -1 -2 3 11 12 13 0
-33 34 35 -1 -2 3 11 12 -13 0
-33 34 35 -1 -2 3 11 -12 13 50 0
-33 34 35 -1 -2 3 11 -12 -13 57 0
-33 34 35 -1 -2 3 -11 12 13 0
-33 34 35 -1 -2 3 -11 12 -13 0
-33 34 35 -1 -2 3 -11 -12 13 0
-33 34 35 -1 -2 3 -11 -12 -13 36 0
-33 34 35 -1 -2 -3 11 12 13 36 0
-33 34 35 -1 -2 -3 11 12 -13 36 0
-33 34 35 -1 -2 -3 11 -12 13 37 0
-33 34 35 -1 -2 -3 11 -12 -13 0
-33 34 35 -1 -2 -3 -11 12 13 0
-33 34 35 -1 -2 -3 -11 12 -13 0
-33 34 35 -1 -2 -3 -11 -12 13 36 0
-33 34 35 -1 -2 -3 -11 -12 -13 36 0
-33 34 -35 1 2 3 11 12 13 36 0
-33 34 -35 1 2 3 11 12 -13 0
-33 34 -35 1 2 3 11 -12 13 36 0
-33 34 -35 1 2 3 11 -12 -13 0
-33 34 -35 1 2 3 -11 12 13 0
-33 34 -35 1 2 3 -11 12 -13 0
-33 34 -35 1 2 3 -11 -12 13 36 0
-33 34 -35 1 2 3 -11 -12 -13 36 0
-33 34 -35 1 2 -3 11 12 13 36 0
-33 34 -35 1 2 -3 11 12 -13 0
-33 34 -35 1 2 -3 11 -12 13 0
-33 34 -35 1 2 -3 11 -12 -13 0
-33 34 -35 1 2 -3 -11 12 13 0
-33 34 -35 1 2 -3 -11 12 -13 0
-33 34 -35 1 2 -3 -11 -12 13 0
-33 34 -35 1 2 -3 -11 -12 -13 36 0
-33 34 -35 1 -2 3 11 12 13 0
-33 34 -35 1 -2 3 11 12 -13 0
-33 34 -35 1 -2 3 11 -12 13 0
-33 34 -35 1 -2 3 11 -12 -13 0
-33 34 -35 1 -2 3 -11 12 13 85 0
-33 34 -35 1 -2 3 -11 12 -13 104 0
-33 34 -35 1 -2 3 -11 -12 13 86 0
-33 34 -35 1 -2 3 -11 -12 -13 0
-33 34 -35 1 -2 -3 11 12 13 0
-33 34 -35 1 -2 -3 11 12 -13 0
-33 34 -35 1 -2 -3 11 -12 13 0
-33 34 -35 1 -2 -3 11 -12 -13 0
-33 34 -35 1 -2 -3 -11 12 13 64 0
-33 34 -35 1 -2 -3 -11 12 -13 98 0
-33 34 -35 1 -2 -3 -11 -12 13 38 0
-33 34 -35 1 -2 -3 -11 -12 -13 36 0
-33 34 -35 -1 2 3 11 12 13 0
-33 34 -35 -1 2 3 11 12 -13 0
-33 34 -35 -1 2 3 11 -12 13 0
-33 34 -35 -1 2 3 11 -12 -13 52 0
-33 34 -35 -1 2 3 -11 12 13 43 0
-33 34 -35 -1 2 3 -11 12 -13 75 0
-33 34 -35 -1 2 3 -11 -12 13 0
-33 34 -35 -1 2 3 -11 -12 -13 0
-33 34 -35 -1 2 -3 11 12 13 0
-33 34 -35 -1 2 -3 11 12 -13 0
-33 34 -35 -1 2 -3 11 -12 13 0
-33 34 -35 -1 2 -3 11 -12 -13 67 0
-33 34 -35 -1 2 -3 -11 12 13 92 0
-33 34 -35 -1 2 -3 -11 12 -13 60 0
-33 34 -35 -1 2 -3 -11 -12 13 0
-33 34 -35 -1 2 -3 -11 -12 -13 36 0
-33 34 -35 -1 -2 3 11 12 13 0
-33 34 -35 -1 -2 3 11 12 -13 0
-33 34 -35 -1 -2 3 11 -12 13 81 0
-33 34 -35 -1 -2 3 11 -12 -13 109 0
-33 34 -35 -1 -2 3 -11 12 13 43 0
-33 34 -35 -1 -2 3 -11 12 -13 0
-33 34 -35 -1 -2 3 -11 -12 13 0
-33 34 -35 -1 -2 3 -11 -12 -13 36 0
-33 34 -35 -1 -2 -3 11 12 13 36 0
-33 34 -35 -1 -2 -3 11 12 -13 36 0
-33 34 -35 -1 -2 -3 11 -12 13 0
-33 34 -35 -1 -2 -3 11 -12 -13 93 0
-33 34 -35 -1 -2 -3 -11 12 13 0
-33 34 -35 -1 -2 -3 -11 12 -13 0
-33 34 -35 -1 -2 -3 -11 -12 13 36 0
-33 34 -35 -1 -2 -3 -11 -12 -13 36 0
-33 -34 35 1 2 3 11 12 13 36 0
-33 -34 35 1 2 3 11 12 -13 0
-33 -34 35 1 2 3 11 -12 13 36 0
-33 -34 35 1 2 3 11 -12 -13 0
-33 -34 35 1 2 3 -11 12 13 0
-33 -34 35 1 2 3 -11 12 -13 0
-33 -34 35 1 2 3 -11 -12 13 36 0
-33 -34 35 1 2 3 -11 -12 -13 36 0
-33 -34 35 1 2 -3 11 12 13 36 0
-33 -34 35 1 2 -3 11 12 -13 0
-33 -34 35 1 2 -3 11 -12 13 0
-33 -34 35 1 2 -3 11 -12 -13 0
-33 -34 35 1 2 -3 -11 12 13 0
-33 -34 35 1 2 -3 -11 12 -13 0
-33 -34 35 1 2 -3 -11 -12 13 0
-33 -34 35 1 2 -3 -11 -12 -13 36 0
-33 -34 35 1 -2 3 11 12 13 0
-33 -34 35 1 -2 3 11 12 -13 0
-33 -34 35 1 -2 3 11 -12 13 0
-33 -34 35 1 -2 3 11 -12 -13 0
-33 -34 35 1 -2 3 -11 12 13 0
-33 -34 35 1 -2 3 -11 12 -13 0
-33 -34 35 1 -2 3 -11 -12 13 71 0
-33 -34 35 1 -2 3 -11 -12 -13 37 0
-33 -34 35 1 -2 -3 11 12 13 0
-33 -34 35 1 -2 -3 11 12 -13 0
-33 -34 35 1 -2 -3 11 -12 13 0
-33 -34 35 1 -2 -3 11 -12 -13 0
-33 -34 35 1 -2 -3 -11 12 13 0
-33 -34 35 1 -2 -3 -11 12 -13 72 0
-33 -34 35 1 -2 -3 -11 -12 13 76 0
-33 -34 35 1 -2 -3 -11 -12 -13 36 0
-33 -34 35 -1 2 3 11 12 13 0
-33 -34 35 -1 2 3 11 12 -13 0
-33 -34 35 -1 2 3 11 -12 13 0
-33 -34 35 -1 2 3 11 -12 -13 0
-33 -34 35 -1 2 3 -11 12 13 103 0
-33 -34 35 -1 2 3 -11 12 -13 81 0
-33 -34 35 -1 2 3 -11 -12 13 51 0
-33 -34 35 -1 2 3 -11 -12 -13 0
-33 -34 35 -1 2 -3 11 12 13 0
-33 -34 35 -1 2 -3 11 12 -13 0
-33 -34 35 -1 2 -3 11 -12 13 0
-33 -34 35 -1 2 -3 11 -12 -13 0
-33 -34 35 -1 2 -3 -11 12 13 62 0
-33 -34 35 -1 2 -3 -11 12 -13 41 0
-33 -34 35 -1 2 -3 -11 -12 13 0
-33 -34 35 -1 2 -3 -11 -12 -13 36 0
-33 -34 35 -1 -2 3 11 12 13 0
-33 -34 35 -1 -2 3 11 12 -13 0
-33 -34 35 -1 -2 3 11 -12 13 0
-33 -34 35 -1 -2 3 11 -12 -13 0
-33 -34 35 -1 -2 3 -11 12 13 43 0
-33 -34 35 -1 -2 3 -11 12 -13 37 0
-33 -34 35 -1 -2 3 -11 -12 13 0
-33 -34 35 -1 -2 3 -11 -12 -13 36 0
-33 -34 35 -1 -2 -3 11 12 13 36 0
-33 -34 35 -1 -2 -3 11 12 -13 36 0
-33 -34 35 -1 -2 -3 11 -12 13 0
-33 -34 35 -1 -2 -3 11 -12 -13 78 0
-33 -34 35 -1 -2 -3 -11 12 13 37 0
-33 -34 35 -1 -2 -3 -11 12 -13 37 0
-33 -34 35 -1 -2 -3 -11 -12 13 36 0
-33 -34 35 -1 -2 -3 -11 -12 -13 36 0
-33 -34 -35 1 2 3 11 12 13 36 0
-33 -34 -35 1 2 3 11 12 -13 0
-33 -34 -35 1 2 3 11 -12 13 36 0
-33 -34 -35 1 2 3 11 -12 -13 0
-33 -34 -35 1 2 3 -11 12 13 0
-33 -34 -35 1 2 3 -11 12 -13 0
-33 -34 -35 1 2 3 -11 -12 13 36 0
-33 -34 -35 1 2 3 -11 -12 -13 36 0
-33 -34 -35 1 2 -3 11 12 13 36 0
-33 -34 -35 1 2 -3 11 12 -13 0
-33 -34 -35 1 2 -3 11 -12 13 0
-33 -34 -35 1 2 -3 11 -12 -13 0
-33 -34 -35 1 2 -3 -11 12 13 0
-33 -34 -35 1 2 -3 -11 12 -13 0
-33 -34 -35 1 2 -3 -11 -12 13 0
-33 -34 -35 1 2 -3 -11 -12 -13 36 0
-33 -34 -35 1 -2 3 11 12 13 0
-33 -34 -35 1 -2 3 11 12 -13 0
-33 -34 -35 1 -2 3 11 -12 13 0
-33 -34 -35 1 -2 3 11 -12 -13 0
-33 -34 -35 1 -2 3 -11 12 13 0
-33 -34 -35 1 -2 3 -11 12 -13 0
-33 -34 -35 1 -2 3 -11 -12 13 0
-33 -34 -35 1 -2 3 -11 -12 -13 0
-33 -34 -35 1 -2 -3 11 12 13 0
-33 -34 -35 1 -2 -3 11 12 -13 0
-33 -34 -35 1 -2 -3 11 -12 13 0
-33 -34 -35 1 -2 -3 11 -12 -13 0
-33 -34 -35 1 -2 -3 -11 12 13 0
-33 -34 -35 1 -2 -3 -11 12 -13 0
-33 -34 -35 1 -2 -3 -11 -12 13 38 0
-33 -34 -35 1 -2 -3 -11 -12 -13 36 0
-33 -34 -35 -1 2 3 11 12 13 0
-33 -34 -35 -1 2 3 11 12 -13 0
-33 -34 -35 -1 2 3 11 -12 13 0
-33 -34 -35 -1 2 3 11 -12 -13 0
-33 -34 -35 -1 2 3 -11 12 13 0
-33 -34 -35 -1 2 3 -11 12 -13 0
-33 -34 -35 -1 2 3 -11 -12 13 36 0
-33 -34 -35 -1 2 3 -11 -12 -13 37 0
-33 -34 -35 -1 2 -3 11 12 13 0
-33 -34 -35 -1 2 -3 11 12 -13 0
-33 -34 -35 -1 2 -3 11 -12 13 0
-33 -34 -35 -1 2 -3 11 -12 -13 0
-33 -34 -35 -1 2 -3 -11 12 13 0
-33 -34 -35 -1 2 -3 -11 12 -13 80 0
-33 -34 -35 -1 2 -3 -11 -12 13 37 0
-33 -34 -35 -1 2 -3 -11 -12 -13 36 0
-33 -34 -35 -1 -2 3 11 12 13 0
-33 -34 -35 -1 -2 3 11 12 -13 0
-33 -34 -35 -1 -2 3 11 -12 13 0
-33 -34 -35 -1 -2 3 11 -12 -13 0
-33 -34 -35 -1 -2 3 -11 12 13 0
-33 -34 -35 -1 -2 3 -11 12 -13 0
-33 -34 -35 -1 -2 3 -11 -12 13 37 0
-33 -34 -35 -1 -2 3 -11 -12 -13 36 0
-33 -34 -35 -1 -2 -3 11 12 13 36 0
-33 -34 -35 -1 -2 -3 11 12 -13 36 0
-33 -34 -35 -1 -2 -3 11 -12 13 0
-33 -34 -35 -1 -2 -3 11 -12 -13 0
-33 -34 -35 -1 -2 -3 -11 12 13 0
-33 -34 -35 -1 -2 -3 -11 12 -13 0
-33 -34 -35 -1 -2 -3 -11 -12 13 36 0
-33 -34 -35 -1 -2 -3 -11 -12 -13 36 0
111 112 113 22 23 24 33 34 35 114 0
111 112 113 22 23 24 33 34 -35 114 0
111 112 113 22 23 24 33 -34 35 0
111 112 113 22 23 24 33 -34 -35 0
111 112 113 22 23 24 -33 34 35 0
111 112 113 22 23 24 -33 34 -35 0
111 112 113 22 23 24 -33 -34 35 114 0
111 112 113 22 23 24 -33 -34 -35 114 0
111 112 113 22 23 -24 33 34 35 114 0
111 112 113 22 23 -24 33 34 -35 0
111 112 113 22 23 -24 33 -34 35 0
111 112 113 22 23 -24 33 -34 -35 0
111 112 113 22 23 -24 -33 34 35 0
111 112 113 22 23 -24 -33 34 -35 0
111 112 113 22 23 -24 -33 -34 35 0
111 112 113 22 23 -24 -33 -34 -35 114 0
111 112 113 22 -23 24 33 34 35 117 0
111 112 113 22 -23 24 33 34 -35 0
111 112 113 22 -23 24 33 -34 35 0
111 112 113 22 -23 24 33 -34 -35 0
111 112 113 22 -23 24 -33 34 35 0
111 112 113 22 -23 24 -33 34 -35 0
111 112 113 22 -23 24 -33 -34 35 0
111 112 113 22 -23 24 -33 -34 -35 114 0
111 112 113 22 -23 -24 33 34 35 118 0
111 112 113 22 -23 -24 33 34 -35 0
111 112 113 22 -23 -24 33 -34 35 0
111 112 113 22 -23 -24 33 -34 -35 0
111 112 113 22 -23 -24 -33 34 35 0
111 112 113 22 -23 -24 -33 34 -35 0
111 112 113 22 -23 -24 -33 -34 35 0
111 112 113 22 -23 -24 -33 -34 -35 0
111 112 113 -22 23 24 33 34 35 0
111 112 113 -22 23 24 33 34 -35 0
111 112 113 -22 23 24 33 -34 35 0
111 112 113 -22 23 24 33 -34 -35 0
111 112 113 -22 23 24 -33 34 35 0
111 112 113 -22 23 24 -33 34 -35 0
111 112 113 -22 23 24 -33 -34 35 0
111 112 113 -22 23 24 -33 -34 -35 0
111 112 113 -22 23 -24 33 34 35 114 0
111 112 113 -22 23 -24 33 34 -35 0
111 112 113 -22 23 -24 33 -34 35 0
111 112 113 -22 23 -24 33 -34 -35 0
111 112 113 -22 23 -24 -33 34 35 0
111 112 113 -22 23 -24 -33 34 -35 0
111 112 113 -22 23 -24 -33 -34 35 0
111 112 113 -22 23 -24 -33 -34 -35 114 0
111 112 113 -22 -23 24 33 34 35 114 0
111 112 113 -22 -23 24 33 34 -35 0
111 112 113 -22 -23 24 33 -34 35 0
111 112 113 -22 -23 24 33 -34 -35 0
111 112 113 -22 -23 24 -33 34 35 0
111 112 113 -22 -23 24 -33 34 -35 0
111 112 113 -22 -23 24 -33 -34 35 0
111 112 113 -22 -23 24 -33 -34 -35 114 0
111 112 113 -22 -23 -24 33 34 35 114 0
111 112 113 -22 -23 -24 33 34 -35 114 0
111 112 113 -22 -23 -24 33 -34 35 0
111 112 113 -22 -23 -24 33 -34 -35 0
111 112 113 -22 -23 -24 -33 34 35 0
111 112 113 -22 -23 -24 -33 34 -35 0
111 112 113 -22 -23 -24 -33 -34 35 114 0
111 112 113 -22 -23 -24 -33 -34 -35 114 0
111 112 -113 22 23 24 33 34 35 114 0
111 112 -113 22 23 24 33 34 -35 114 0
111 112 -113 22 23 24 33 -34 35 0
111 112 -113 22 23 24 33 -34 -35 0
111 112 -113 22 23 24 -33 34 35 0
111 112 -113 22 23 24 -33 34 -35 0
111 112 -113 22 23 24 -33 -34 35 114 0
111 112 -113 22 23 24 -33 -34 -35 114 0
111 112 -113 22 23 -24 33 34 35 114 0
111 112 -113 22 23 -24 33 34 -35 117 0
111 112 -113 22 23 -24 33 -34 35 116 0
111 112 -113 22 23 -24 33 -34 -35 0
111 112 -113 22 23 -24 -33 34 35 0
111 112 -113 22 23 -24 -33 34 -35 0
111 112 -113 22 23 -24 -33 -34 35 0
111 112 -113 22 23 -24 -33 -34 -35 114 0
111 112 -113 22 -23 24 33 34 35 0
111 112 -113 22 -23 24 33 34 -35 117 0
111 112 -113 22 -23 24 33 -34 35 119 0
111 112 -113 22 -23 24 33 -34 -35 0
111 112 -113 22 -23 24 -33 34 35 0
111 112 -113 22 -23 24 -33 34 -35 0
111 112 -113 22 -23 24 -33 -34 35 0
111 112 -113 22 -23 24 -33 -34 -35 114 0
111 112 -113 22 -23 -24 33 34 35 118 0
111 112 -113 22 -23 -24 33 34 -35 120 0
111 112 -113 22 -23 -24 33 -34 35 0
111 112 -113 22 -23 -24 33 -34 -35 0
111 112 -113 22 -23 -24 -33 34 35 0
111 112 -113 22 -23 -24 -33 34 -35 0
111 112 -113 22 -23 -24 -33 -34 35 0
111 112 -113 22 -23 -24 -33 -34 -35 0
111 112 -113 -22 23 24 33 34 35 117 0
111 112 -113 -22 23 24 33 34 -35 121 0
111 112 -113 -22 23 24 33 -34 35 0
111 112 -113 -22 23 24 33 -34 -35 0
111 112 -113 -22 23 24 -33 34 35 0
111 112 -113 -22 23 24 -33 34 -35 0
111 112 -113 -22 23 24 -33 -34 35 0
111 112 -113 -22 23 24 -33 -34 -35 0
111 112 -113 -22 23 -24 33 34 35 114 0
111 112 -113 -22 23 -24 33 34 -35 0
111 112 -113 -22 23 -24 33 -34 35 0
111 112 -113 -22 23 -24 33 -34 -35 0
111 112 -113 -22 23 -24 -33 34 35 0
111 112 -113 -22 23 -24 -33 34 -35 0
111 112 -113 -22 23 -24 -33 -34 35 0
111 112 -113 -22 23 -24 -33 -34 -35 114 0
111 112 -113 -22 -23 24 33 34 35 114 0
111 112 -113 -22 -23 24 33 34 -35 0
111 112 -113 -22 -23 24 33 -34 35 0
111 112 -113 -22 -23 24 33 -34 -35 0
111 112 -113 -22 -23 24 -33 34 35 0
111 112 -113 -22 -23 24 -33 34 -35 0
111 112 -113 -22 -23 24 -33 -34 35 0
111 112 -113 -22 -23 24 -33 -34 -35 114 0
111 112 -113 -22 -23 -24 33 34 35 114 0
111 112 -113 -22 -23 -24 33 34 -35 114 0
111 112 -113 -22 -23 -24 33 -34 35 0
111 112 -113 -22 -23 -24 33 -34 -35 0
111 112 -113 -22 -23 -24 -33 34 35 0
111 112 -113 -22 -23 -24 -33 34 -35 0
111 112 -113 -22 -23 -24 -33 -34 35 114 0
111 112 -113 -22 -23 -24 -33 -34 -35 114 0
111 -112 113 22 23 24 33 34 35 114 0
111 -112 113 22 23 24 33 34 -35 114 0
111 -112 113 22 23 24 33 -34 35 117 0
111 -112 113 22 23 24 33 -34 -35 117 0
111 -112 113 22 23 24 -33 34 35 0
111 -112 113 22 23 24 -33 34 -35 0
111 -112 113 22 23 24 -33 -34 35 114 0
111 -112 113 22 23 24 -33 -34 -35 114 0
111 -112 113 22 23 -24 33 34 35 114 0
111 -112 113 22 23 -24 33 34 -35 0
111 -112 113 22 23 -24 33 -34 35 122 0
111 -112 113 22 23 -24 33 -34 -35 123 0
111 -112 113 22 23 -24 -33 34 35 0
111 -112 113 22 23 -24 -33 34 -35 0
111 -112 113 22 23 -24 -33 -34 35 0
111 -112 113 22 23 -24 -33 -34 -35 114 0
111 -112 113 22 -23 24 33 34 35 0
111 -112 113 22 -23 24 33 34 -35 0
111 -112 113 22 -23 24 33 -34 35 130 0
111 -112 113 22 -23 24 33 -34 -35 124 0
111 -112 113 22 -23 24 -33 34 35 0
111 -112 113 22 -23 24 -33 34 -35 0
111 -112 113 22 -23 24 -33 -34 35 0
111 -112 113 22 -23 24 -33 -34 -35 114 0
111 -112 113 22 -23 -24 33 34 35 0
111 -112 113 22 -23 -24 33 34 -35 152 0
111 -112 113 22 -23 -24 33 -34 35 143 0
111 -112 113 22 -23 -24 33 -34 -35 0
111 -112 113 22 -23 -24 -33 34 35 0
111 -112 113 22 -23 -24 -33 34 -35 0
111 -112 113 22 -23 -24 -33 -34 35 0
111 -112 113 22 -23 -24 -33 -34 -35 0
111 -112 113 -22 23 24 33 34 35 0
111 -112 113 -22 23 24 33 34 -35 153 0
111 -112 113 -22 23 24 33 -34 35 131 0
111 -112 113 -22 23 24 33 -34 -35 0
111 -112 113 -22 23 24 -33 34 35 0
111 -112 113 -22 23 24 -33 34 -35 0
111 -112 113 -22 23 24 -33 -34 35 0
111 -112 113 -22 23 24 -33 -34 -35 0
111 -112 113 -22 23 -24 33 34 35 114 0
111 -112 113 -22 23 -24 33 34 -35 117 0
111 -112 113 -22 23 -24 33 -34 35 172 0
111 -112 113 -22 23 -24 33 -34 -35 0
111 -112 113 -22 23 -24 -33 34 35 0
111 -112 113 -22 23 -24 -33 34 -35 0
111 -112 113 -22 23 -24 -33 -34 35 0
111 -112 113 -22 23 -24 -33 -34 -35 114 0
111 -112 113 -22 -23 24 33 34 35 114 0
111 -112 113 -22 -23 24 33 34 -35 117 0
111 -112 113 -22 -23 24 33 -34 35 0
111 -112 113 -22 -23 24 33 -34 -35 0
111 -112 113 -22 -23 24 -33 34 35 0
111 -112 113 -22 -23 24 -33 34 -35 0
111 -112 113 -22 -23 24 -33 -34 35 0
111 -112 113 -22 -23 24 -33 -34 -35 114 0
111 -112 113 -22 -23 -24 33 34 35 114 0
111 -112 113 -22 -23 -24 33 34 -35 114 0
111 -112 113 -22 -23 -24 33 -34 35 0
111 -112 113 -22 -23 -24 33 -34 -35 0
111 -112 113 -22 -23 -24 -33 34 35 0
111 -112 113 -22 -23 -24 -33 34 -35 0
111 -112 113 -22 -23 -24 -33 -34 35 114 0
111 -112 113 -22 -23 -24 -33 -34 -35 114 0
111 -112 -113 22 23 24 33 34 35 114 0
111 -112 -113 22 23 24 33 34 -35 114 0
111 -112 -113 22 23 24 33 -34 35 0
111 -112 -113 22 23 24 33 -34 -35 0
111 -112 -113 22 23 24 -33 34 35 125 0
111 -112 -113 22 23 24 -33 34 -35 0
111 -112 -113 22 23 24 -33 -34 35 114 0
111 -112 -113 22 23 24 -33 -34 -35 114 0
111 -112 -113 22 23 -24 33 34 35 114 0
111 -112 -113 22 23 -24 33 34 -35 0
111 -112 -113 22 23 -24 33 -34 35 0
111 -112 -113 22 23 -24 33 -34 -35 147 0
111 -112 -113 22 23 -24 -33 34 35 144 0
111 -112 -113 22 23 -24 -33 34 -35 0
111 -112 -113 22 23 -24 -33 -34 35 0
111 -112 -113 22 23 -24 -33 -34 -35 114 0
111 -112 -113 22 -23 24 33 34 35 0
111 -112 -113 22 -23 24 33 34 -35 0
111 -112 -113 22 -23 24 33 -34 35 119 0
111 -112 -113 22 -23 24 33 -34 -35 145 0
111 -112 -113 22 -23 24 -33 34 35 168 0
111 -112 -113 22 -23 24 -33 34 -35 0
111 -112 -113 22 -23 24 -33 -34 35 0
111 -112 -113 22 -23 24 -33 -34 -35 114 0
111 -112 -113 22 -23 -24 33 34 35 0
111 -112 -113 22 -23 -24 33 34 -35 0
111 -112 -113 22 -23 -24 33 -34 35 137 0
111 -112 -113 22 -23 -24 33 -34 -35 160 0
111 -112 -113 22 -23 -24 -33 34 35 149 0
111 -112 -113 22 -23 -24 -33 34 -35 0
111 -112 -113 22 -23 -24 -33 -34 35 0
111 -112 -113 22 -23 -24 -33 -34 -35 0
111 -112 -113 -22 23 24 33 34 35 0
111 -112 -113 -22 23 24 33 34 -35 0
111 -112 -113 -22 23 24 33 -34 35 169 0
111 -112 -113 -22 23 24 33 -34 -35 157 0
111 -112 -113 -22 23 24 -33 34 35 0
111 -112 -113 -22 23 24 -33 34 -35 0
111 -112 -113 -22 23 24 -33 -34 35 0
111 -112 -113 -22 23 24 -33 -34 -35 0
111 -112 -113 -22 23 -24 33 34 35 114 0
111 -112 -113 -22 23 -24 33 34 -35 0
111 -112 -113 -22 23 -24 33 -34 35 129 0
111 -112 -113 -22 23 -24 33 -34 -35 164 0
111 -112 -113 -22 23 -24 -33 34 35 0
111 -112 -113 -22 23 -24 -33 34 -35 0
111 -112 -113 -22 23 -24 -33 -34 35 0
111 -112 -113 -22 23 -24 -33 -34 -35 114 0
111 -112 -113 -22 -23 24 33 34 35 114 0
111 -112 -113 -22 -23 24 33 34 -35 0
111 -112 -113 -22 -23 24 33 -34 35 117 0
111 -112 -113 -22 -23 24 33 -34 -35 126 0
111 -112 -113 -22 -23 24 -33 34 35 0
111 -112 -113 -22 -23 24 -33 34 -35 0
111 -112 -113 -22 -23 24 -33 -34 35 0
111 -112 -113 -22 -23 24 -33 -34 -35 114 0
111 -112 -113 -22 -23 -24 33 34 35 114 0
111 -112 -113 -22 -23 -24 33 34 -35 114 0
111 -112 -113 -22 -23 -24 33 -34 35 117 0
111 -112 -113 -22 -23 -24 33 -34 -35 0
111 -112 -113 -22 -23 -24 -33 34 35 0
111 -112 -113 -22 -23 -24 -33 34 -35 0
111 -112 -113 -22 -23 -24 -33 -34 35 114 0
111 -112 -113 -22 -23 -24 -33 -34 -35 114 0
-111 112 113 22 23 24 33 34 35 114 0
-111 112 113 22 23 24 33 34 -35 114 0
-111 112 113 22 23 24 33 -34 35 0
-111 112 113 22 23 24 33 -34 -35 0
-111 112 113 22 23 24 -33 34 35 127 0
-111 112 113 22 23 24 -33 34 -35 117 0
-111 112 113 22 23 24 -33 -34 35 114 0
-111 112 113 22 23 24 -33 -34 -35 114 0
-111 112 113 22 23 -24 33 34 35 114 0
-111 112 113 22 23 -24 33 34 -35 0
-111 112 113 22 23 -24 33 -34 35 0
-111 112 113 22 23 -24 33 -34 -35 0
-111 112 113 22 23 -24 -33 34 35 161 0
-111 112 113 22 23 -24 -33 34 -35 132 0
-111 112 113 22 23 -24 -33 -34 35 0
-111 112 113 22 23 -24 -33 -34 -35 114 0
-111 112 113 22 -23 24 33 34 35 0
-111 112 113 22 -23 24 33 34 -35 0
-111 112 113 22 -23 24 33 -34 35 0
-111 112 113 22 -23 24 33 -34 -35 156 0
-111 112 113 22 -23 24 -33 34 35 133 0
-111 112 113 22 -23 24 -33 34 -35 173 0
-111 112 113 22 -23 24 -33 -34 35 0
-111 112 113 22 -23 24 -33 -34 -35 114 0
-111 112 113 22 -23 -24 33 34 35 0
-111 112 113 22 -23 -24 33 34 -35 0
-111 112 113 22 -23 -24 33 -34 35 0
-111 112 113 22 -23 -24 33 -34 -35 154 0
-111 112 113 22 -23 -24 -33 34 35 165 0
-111 112 113 22 -23 -24 -33 34 -35 134 0
-111 112 113 22 -23 -24 -33 -34 35 0
-111 112 113 22 -23 -24 -33 -34 -35 0
-111 112 113 -22 23 24 33 34 35 0
-111 112 113 -22 23 24 33 34 -35 0
-111 112 113 -22 23 24 33 -34 35 0
-111 112 113 -22 23 24 33 -34 -35 151 0
-111 112 113 -22 23 24 -33 34 35 162 0
-111 112 113 -22 23 24 -33 34 -35 0
-111 112 113 -22 23 24 -33 -34 35 0
-111 112 113 -22 23 24 -33 -34 -35 0
-111 112 113 -22 23 -24 33 34 35 114 0
-111 112 113 -22 23 -24 33 34 -35 0
-111 112 113 -22 23 -24 33 -34 35 0
-111 112 113 -22 23 -24 33 -34 -35 138 0
-111 112 113 -22 23 -24 -33 34 35 159 0
-111 112 113 -22 23 -24 -33 34 -35 0
-111 112 113 -22 23 -24 -33 -34 35 0
-111 112 113 -22 23 -24 -33 -34 -35 114 0
-111 112 113 -22 -23 24 33 34 35 114 0
-111 112 113 -22 -23 24 33 34 -35 0
-111 112 113 -22 -23 24 33 -34 35 0
-111 112 113 -22 -23 24 33 -34 -35 128 0
-111 112 113 -22 -23 24 -33 34 35 121 0
-111 112 113 -22 -23 24 -33 34 -35 0
-111 112 113 -22 -23 24 -33 -34 35 0
-111 112 113 -22 -23 24 -33 -34 -35 114 0
-111 112 113 -22 -23 -24 33 34 35 114 0
-111 112 113 -22 -23 -24 33 34 -35 114 0
-111 112 113 -22 -23 -24 33 -34 35 0
-111 112 113 -22 -23 -24 33 -34 -35 117 0
-111 112 113 -22 -23 -24 -33 34 35 0
-111 112 113 -22 -23 -24 -33 34 -35 0
-111 112 113 -22 -23 -24 -33 -34 35 114 0
-111 112 113 -22 -23 -24 -33 -34 -35 114 0
-111 112 -113 22 23 24 33 34 35 114 0
-111 112 -113 22 23 24 33 34 -35 114 0
-111 112 -113 22 23 24 33 -34 35 0
-111 112 -113 22 23 24 33 -34 -35 0
-111 112 -113 22 23 24 -33 34 35 0
-111 112 -113 22 23 24 -33 34 -35 0
-111 112 -113 22 23 24 -33 -34 35 114 0
-111 112 -113 22 23 24 -33 -34 -35 114 0
-111 112 -113 22 23 -24 33 34 35 114 0
-111 112 -113 22 23 -24 33 34 -35 0
-111 112 -113 22 23 -24 33 -34 35 0
-111 112 -113 22 23 -24 33 -34 -35 0
-111 112 -113 22 23 -24 -33 34 35 0
-111 112 -113 22 23 -24 -33 34 -35 170 0
-111 112 -113 22 23 -24 -33 -34 35 116 0
-111 112 -113 22 23 -24 -33 -34 -35 114 0
-111 112 -113 22 -23 24 33 34 35 0
-111 112 -113 22 -23 24 33 34 -35 0
-111 112 -113 22 -23 24 33 -34 35 0
-111 112 -113 22 -23 24 33 -34 -35 0
-111 112 -113 22 -23 24 -33 34 35 0
-111 112 -113 22 -23 24 -33 34 -35 135 0
-111 112 -113 22 -23 24 -33 -34 35 136 0
-111 112 -113 22 -23 24 -33 -34 -35 114 0
-111 112 -113 22 -23 -24 33 34 35 0
-111 112 -113 22 -23 -24 33 34 -35 0
-111 112 -113 22 -23 -24 33 -34 35 0
-111 112 -113 22 -23 -24 33 -34 -35 0
-111 112 -113 22 -23 -24 -33 34 35 139 0
-111 112 -113 22 -23 -24 -33 34 -35 166 0
-111 112 -113 22 -23 -24 -33 -34 35 155 0
-111 112 -113 22 -23 -24 -33 -34 -35 0
-111 112 -113 -22 23 24 33 34 35 0
-111 112 -113 -22 23 24 33 34 -35 0
-111 112 -113 -22 23 24 33 -34 35 0
-111 112 -113 -22 23 24 33 -34 -35 0
-111 112 -113 -22 23 24 -33 34 35 146 0
-111 112 -113 -22 23 24 -33 34 -35 140 0
-111 112 -113 -22 23 24 -33 -34 35 0
-111 112 -113 -22 23 24 -33 -34 -35 0
-111 112 -113 -22 23 -24 33 34 35 114 0
-111 112 -113 -22 23 -24 33 34 -35 0
-111 112 -113 -22 23 -24 33 -34 35 0
-111 112 -113 -22 23 -24 33 -34 -35 0
-111 112 -113 -22 23 -24 -33 34 35 148 0
-111 112 -113 -22 23 -24 -33 34 -35 147 0
-111 112 -113 -22 23 -24 -33 -34 35 0
-111 112 -113 -22 23 -24 -33 -34 -35 114 0
-111 112 -113 -22 -23 24 33 34 35 114 0
-111 112 -113 -22 -23 24 33 34 -35 0
-111 112 -113 -22 -23 24 33 -34 35 0
-111 112 -113 -22 -23 24 33 -34 -35 0
-111 112 -113 -22 -23 24 -33 34 35 153 0
-111 112 -113 -22 -23 24 -33 34 -35 0
-111 112 -113 -22 -23 24 -33 -34 35 0
-111 112 -113 -22 -23 24 -33 -34 -35 114 0
-111 112 -113 -22 -23 -24 33 34 35 114 0
-111 112 -113 -22 -23 -24 33 34 -35 114 0
-111 112 -113 -22 -23 -24 33 -34 35 0
-111 112 -113 -22 -23 -24 33 -34 -35 0
-111 112 -113 -22 -23 -24 -33 34 35 117 0
-111 112 -113 -22 -23 -24 -33 34 -35 0
-111 112 -113 -22 -23 -24 -33 -34 35 114 0
-111 112 -113 -22 -23 -24 -33 -34 -35 114 0
-111 -112 113 22 23 24 33 34 35 114 0
-111 -112 113 22 23 24 33 34 -35 114 0
-111 -112 113 22 23 24 33 -34 35 0
-111 -112 113 22 23 24 33 -34 -35 0
-111 -112 113 22 23 24 -33 34 35 0
-111 -112 113 22 23 24 -33 34 -35 0
-111 -112 113 22 23 24 -33 -34 35 114 0
-111 -112 113 22 23 24 -33 -34 -35 114 0
-111 -112 113 22 23 -24 33 34 35 114 0
-111 -112 113 22 23 -24 33 34 -35 0
-111 -112 113 22 23 -24 33 -34 35 0
-111 -112 113 22 23 -24 33 -34 -35 0
-111 -112 113 22 23 -24 -33 34 35 0
-111 -112 113 22 23 -24 -33 34 -35 0
-111 -112 113 22 23 -24 -33 -34 35 122 0
-111 -112 113 22 23 -24 -33 -34 -35 114 0
-111 -112 113 22 -23 24 33 34 35 0
-111 -112 113 22 -23 24 33 34 -35 0
-111 -112 113 22 -23 24 33 -34 35 0
-111 -112 113 22 -23 24 33 -34 -35 0
-111 -112 113 22 -23 24 -33 34 35 0
-111 -112 113 22 -23 24 -33 34 -35 0
-111 -112 113 22 -23 24 -33 -34 35 171 0
-111 -112 113 22 -23 24 -33 -34 -35 114 0
-111 -112 113 22 -23 -24 33 34 35 0
-111 -112 113 22 -23 -24 33 34 -35 0
-111 -112 113 22 -23 -24 33 -34 35 0
-111 -112 113 22 -23 -24 33 -34 -35 0
-111 -112 113 22 -23 -24 -33 34 35 0
-111 -112 113 22 -23 -24 -33 34 -35 141 0
-111 -112 113 22 -23 -24 -33 -34 35 163 0
-111 -112 113 22 -23 -24 -33 -34 -35 158 0
-111 -112 113 -22 23 24 33 34 35 0
-111 -112 113 -22 23 24 33 34 -35 0
-111 -112 113 -22 23 24 33 -34 35 0
-111 -112 113 -22 23 24 33 -34 -35 0
-111 -112 113 -22 23 24 -33 34 35 0
-111 -112 113 -22 23 24 -33 34 -35 167 0
-111 -112 113 -22 23 24 -33 -34 35 166 0
-111 -112 113 -22 23 24 -33 -34 -35 0
-111 -112 113 -22 23 -24 33 34 35 114 0
-111 -112 113 -22 23 -24 33 34 -35 0
-111 -112 113 -22 23 -24 33 -34 35 0
-111 -112 113 -22 23 -24 33 -34 -35 0
-111 -112 113 -22 23 -24 -33 34 35 0
-111 -112 113 -22 23 -24 -33 34 -35 123 0
-111 -112 113 -22 23 -24 -33 -34 35 125 0
-111 -112 113 -22 23 -24 -33 -34 -35 114 0
-111 -112 113 -22 -23 24 33 34 35 114 0
-111 -112 113 -22 -23 24 33 34 -35 0
-111 -112 113 -22 -23 24 33 -34 35 0
-111 -112 113 -22 -23 24 33 -34 -35 0
-111 -112 113 -22 -23 24 -33 34 35 0
-111 -112 113 -22 -23 24 -33 34 -35 117 0
-111 -112 113 -22 -23 24 -33 -34 35 122 0
-111 -112 113 -22 -23 24 -33 -34 -35 114 0
-111 -112 113 -22 -23 -24 33 34 35 114 0
-111 -112 113 -22 -23 -24 33 34 -35 114 0
-111 -112 113 -22 -23 -24 33 -34 35 0
-111 -112 113 -22 -23 -24 33 -34 -35 0
-111 -112 113 -22 -23 -24 -33 34 35 0
-111 -112 113 -22 -23 -24 -33 34 -35 117 0
-111 -112 113 -22 -23 -24 -33 -34 35 114 0
-111 -112 113 -22 -23 -24 -33 -34 -35 114 0
-111 -112 -113 22 23 24 33 34 35 114 0
-111 -112 -113 22 23 24 33 34 -35 114 0
-111 -112 -113 22 23 24 33 -34 35 0
-111 -112 -113 22 23 24 33 -34 -35 0
-111 -112 -113 22 23 24 -33 34 35 0
-111 -112 -113 22 23 24 -33 34 -35 0
-111 -112 -113 22 23 24 -33 -34 35 114 0
-111 -112 -113 22 23 24 -33 -34 -35 114 0
-111 -112 -113 22 23 -24 33 34 35 114 0
-111 -112 -113 22 23 -24 33 34 -35 0
-111 -112 -113 22 23 -24 33 -34 35 0
-111 -112 -113 22 23 -24 33 -34 -35 0
-111 -112 -113 22 23 -24 -33 34 35 0
-111 -112 -113 22 23 -24 -33 34 -35 0
-111 -112 -113 22 23 -24 -33 -34 35 0
-111 -112 -113 22 23 -24 -33 -34 -35 114 0
-111 -112 -113 22 -23 24 33 34 35 0
-111 -112 -113 22 -23 24 33 34 -35 0
-111 -112 -113 22 -23 24 33 -34 35 0
-111 -112 -113 22 -23 24 33 -34 -35 0
-111 -112 -113 22 -23 24 -33 34 35 0
-111 -112 -113 22 -23 24 -33 34 -35 0
-111 -112 -113 22 -23 24 -33 -34 35 0
-111 -112 -113 22 -23 24 -33 -34 -35 114 0
-111 -112 -113 22 -23 -24 33 34 35 0
-111 -112 -113 22 -23 -24 33 34 -35 0
-111 -112 -113 22 -23 -24 33 -34 35 0
-111 -112 -113 22 -23 -24 33 -34 -35 0
-111 -112 -113 22 -23 -24 -33 34 35 0
-111 -112 -113 22 -23 -24 -33 34 -35 0
-111 -112 -113 22 -23 -24 -33 -34 35 155 0
-111 -112 -113 22 -23 -24 -33 -34 -35 150 0
-111 -112 -113 -22 23 24 33 34 35 0
-111 -112 -113 -22 23 24 33 34 -35 0
-111 -112 -113 -22 23 24 33 -34 35 0
-111 -112 -113 -22 23 24 33 -34 -35 0
-111 -112 -113 -22 23 24 -33 34 35 0
-111 -112 -113 -22 23 24 -33 34 -35 0
-111 -112 -113 -22 23 24 -33 -34 35 142 0
-111 -112 -113 -22 23 24 -33 -34 -35 117 0
-111 -112 -113 -22 23 -24 33 34 35 114 0
-111 -112 -113 -22 23 -24 33 34 -35 0
-111 -112 -113 -22 23 -24 33 -34 35 0
-111 -112 -113 -22 23 -24 33 -34 -35 0
-111 -112 -113 -22 23 -24 -33 34 35 0
-111 -112 -113 -22 23 -24 -33 34 -35 0
-111 -112 -113 -22 23 -24 -33 -34 35 127 0
-111 -112 -113 -22 23 -24 -33 -34 -35 114 0
-111 -112 -113 -22 -23 24 33 34 35 114 0
-111 -112 -113 -22 -23 24 33 34 -35 0
-111 -112 -113 -22 -23 24 33 -34 35 0
-111 -112 -113 -22 -23 24 33 -34 -35 0
-111 -112 -113 -22 -23 24 -33 34 35 0
-111 -112 -113 -22 -23 24 -33 34 -35 0
-111 -112 -113 -22 -23 24 -33 -34 35 116 0
-111 -112 -113 -22 -23 24 -33 -34 -35 114 0
-111 -112 -113 -22 -23 -24 33 34 35 114 0
-111 -112 -113 -22 -23 -24 33 34 -35 114 0
-111 -112 -113 -22 -23 -24 33 -34 35 0
-111 -112 -113 -22 -23 -24 33 -34 -35 0
-111 -112 -113 -22 -23 -24 -33 34 35 0
-111 -112 -113 -22 -23 -24 -33 34 -35 0
-111 -112 -113 -22 -23 -24 -33 -34 35 114 0
-111 -112 -113 -22 -23 -24 -33 -34 -35 114 0
